encoding rcpsp/j90.sm/j9039_1.sm nv: 1680780 nc: 3474080 enctime: 29.81
encoding rcpsp/j90.sm/j9039_1.sm nv: 359700 nc: 740212 enctime: 4.52
c File: j9039_1.smnaive.wcnf
c optimal
c final solution cost: 106
c CPU time: 6.228820
s OPTIMUM FOUND

c File: j9039_1.sm.wcnf
c optimal
c final solution cost: 106
c CPU time: 0.883177
s OPTIMUM FOUND


encoding rcpsp/j90.sm/j9039_2.sm nv: 1481568 nc: 3069952 enctime: 26.64
encoding rcpsp/j90.sm/j9039_2.sm nv: 354288 nc: 731077 enctime: 4.31
c File: j9039_2.smnaive.wcnf
c optimal
c final solution cost: 119
c CPU time: 4.694150
s OPTIMUM FOUND

c File: j9039_2.sm.wcnf
c optimal
c final solution cost: 119
c CPU time: 0.741321
s OPTIMUM FOUND


encoding rcpsp/j90.sm/j9039_3.sm nv: 1815528 nc: 3733240 enctime: 31.07
encoding rcpsp/j90.sm/j9039_3.sm nv: 301392 nc: 616348 enctime: 3.81
c File: j9039_3.smnaive.wcnf
c optimal
c final solution cost: 83
c CPU time: 6.604377
s OPTIMUM FOUND

c File: j9039_3.sm.wcnf
c optimal
c final solution cost: 83
c CPU time: 0.595189
s OPTIMUM FOUND


encoding rcpsp/j90.sm/j9039_4.sm nv: 1720763 nc: 3540139 enctime: 29.65
encoding rcpsp/j90.sm/j9039_4.sm nv: 294206 nc: 601957 enctime: 3.66
c File: j9039_4.smnaive.wcnf
c optimal
c final solution cost: 81
c CPU time: 12.198475
s OPTIMUM FOUND

c File: j9039_4.sm.wcnf
c optimal
c final solution cost: 81
c CPU time: 0.975115
s OPTIMUM FOUND


encoding rcpsp/j90.sm/j9039_5.sm nv: 1856448 nc: 3826238 enctime: 32.53
encoding rcpsp/j90.sm/j9039_5.sm nv: 312924 nc: 641293 enctime: 3.07
c File: j9039_5.smnaive.wcnf
c optimal
c final solution cost: 85
c CPU time: 6.514191
s OPTIMUM FOUND

c File: j9039_5.sm.wcnf
c optimal
c final solution cost: 85
c CPU time: 0.686179
s OPTIMUM FOUND


encoding rcpsp/j90.sm/j9039_6.sm nv: 1957410 nc: 4043990 enctime: 34.41
encoding rcpsp/j90.sm/j9039_6.sm nv: 376425 nc: 773975 enctime: 4.67
c File: j9039_6.smnaive.wcnf
c optimal
c final solution cost: 102
c CPU time: 6.316143
s OPTIMUM FOUND

c File: j9039_6.sm.wcnf
c optimal
c final solution cost: 102
c CPU time: 0.941526
s OPTIMUM FOUND


encoding rcpsp/j90.sm/j9039_7.sm nv: 2009230 nc: 4124311 enctime: 34.07
encoding rcpsp/j90.sm/j9039_7.sm nv: 329817 nc: 673341 enctime: 4.12
c File: j9039_7.smnaive.wcnf
c optimal
c final solution cost: 85
c CPU time: 6.184320
s OPTIMUM FOUND

c File: j9039_7.sm.wcnf
c optimal
c final solution cost: 85
c CPU time: 0.726107
s OPTIMUM FOUND


encoding rcpsp/j90.sm/j9039_8.sm nv: 1748536 nc: 3599101 enctime: 30.35
encoding rcpsp/j90.sm/j9039_8.sm nv: 289128 nc: 591669 enctime: 3.61
c File: j9039_8.smnaive.wcnf
c optimal
c final solution cost: 81
c CPU time: 5.590699
s OPTIMUM FOUND

c File: j9039_8.sm.wcnf
c optimal
c final solution cost: 81
c CPU time: 0.582089
s OPTIMUM FOUND


encoding rcpsp/j90.sm/j9039_9.sm nv: 1844196 nc: 3771347 enctime: 30.57
encoding rcpsp/j90.sm/j9039_9.sm nv: 304236 nc: 618857 enctime: 3.74
c File: j9039_9.smnaive.wcnf
c optimal
c final solution cost: 79
c CPU time: 5.187758
s OPTIMUM FOUND

c File: j9039_9.sm.wcnf
c optimal
c final solution cost: 79
c CPU time: 0.711961
s OPTIMUM FOUND


encoding rcpsp/j90.sm/j903_9.sm nv: 557479 nc: 1193665 enctime: 11.22
encoding rcpsp/j90.sm/j903_9.sm nv: 74176 nc: 155752 enctime: 1.03
c File: j903_9.smnaive.wcnf
c optimal
c final solution cost: 61
c CPU time: 2.527039
s OPTIMUM FOUND

c File: j903_9.sm.wcnf
c optimal
c final solution cost: 61
c CPU time: 0.174298
s OPTIMUM FOUND


encoding rcpsp/j90.sm/j9040_10.sm nv: 1924650 nc: 3912801 enctime: 30.56
encoding rcpsp/j90.sm/j9040_10.sm nv: 356265 nc: 721262 enctime: 4.29
c File: j9040_10.smnaive.wcnf
c optimal
c final solution cost: 86
c CPU time: 5.079884
s OPTIMUM FOUND

c File: j9040_10.sm.wcnf
c optimal
c final solution cost: 86
c CPU time: 0.613918
s OPTIMUM FOUND


encoding rcpsp/j90.sm/j9040_1.sm nv: 1717947 nc: 3507950 enctime: 27.98
encoding rcpsp/j90.sm/j9040_1.sm nv: 351648 nc: 715299 enctime: 4.96
c File: j9040_1.smnaive.wcnf
c optimal
c final solution cost: 95
c CPU time: 4.759788
s OPTIMUM FOUND

c File: j9040_1.sm.wcnf
c optimal
c final solution cost: 95
c CPU time: 0.622241
s OPTIMUM FOUND


encoding rcpsp/j90.sm/j9040_2.sm nv: 2099994 nc: 4292235 enctime: 34.77
encoding rcpsp/j90.sm/j9040_2.sm nv: 381064 nc: 775525 enctime: 4.71
c File: j9040_2.smnaive.wcnf
c optimal
c final solution cost: 91
c CPU time: 5.834660
s OPTIMUM FOUND

c File: j9040_2.sm.wcnf
c optimal
c final solution cost: 91
c CPU time: 0.657605
s OPTIMUM FOUND


encoding rcpsp/j90.sm/j9040_3.sm nv: 1925414 nc: 3908631 enctime: 30.99
encoding rcpsp/j90.sm/j9040_3.sm nv: 330798 nc: 668639 enctime: 4.08
c File: j9040_3.smnaive.wcnf
c optimal
c final solution cost: 77
c CPU time: 4.994551
s OPTIMUM FOUND

c File: j9040_3.sm.wcnf
c optimal
c final solution cost: 77
c CPU time: 0.564925
s OPTIMUM FOUND


encoding rcpsp/j90.sm/j9040_4.sm nv: 1486485 nc: 3042887 enctime: 24.30
encoding rcpsp/j90.sm/j9040_4.sm nv: 349569 nc: 713027 enctime: 4.78
c File: j9040_4.smnaive.wcnf
c optimal
c final solution cost: 106
c CPU time: 4.133138
s OPTIMUM FOUND

c File: j9040_4.sm.wcnf
c optimal
c final solution cost: 106
c CPU time: 0.625997
s OPTIMUM FOUND


encoding rcpsp/j90.sm/j9040_5.sm nv: 1937720 nc: 3963878 enctime: 31.90
encoding rcpsp/j90.sm/j9040_5.sm nv: 358980 nc: 731142 enctime: 4.35
c File: j9040_5.smnaive.wcnf
c optimal
c final solution cost: 92
c CPU time: 5.386375
s OPTIMUM FOUND

c File: j9040_5.sm.wcnf
c optimal
c final solution cost: 92
c CPU time: 0.634385
s OPTIMUM FOUND


encoding rcpsp/j90.sm/j9040_6.sm nv: 1995726 nc: 4061757 enctime: 32.53
encoding rcpsp/j90.sm/j9040_6.sm nv: 356526 nc: 722557 enctime: 4.39
c File: j9040_6.smnaive.wcnf
c optimal
c final solution cost: 86
c CPU time: 5.375159
s OPTIMUM FOUND

c File: j9040_6.sm.wcnf
c optimal
c final solution cost: 86
c CPU time: 0.614747
s OPTIMUM FOUND


encoding rcpsp/j90.sm/j9040_7.sm nv: 2198704 nc: 4490034 enctime: 36.91
encoding rcpsp/j90.sm/j9040_7.sm nv: 369248 nc: 750462 enctime: 4.53
c File: j9040_7.smnaive.wcnf
c optimal
c final solution cost: 87
c CPU time: 6.112977
s OPTIMUM FOUND

c File: j9040_7.sm.wcnf
c optimal
c final solution cost: 87
c CPU time: 0.636750
s OPTIMUM FOUND


encoding rcpsp/j90.sm/j9040_8.sm nv: 1981766 nc: 4011811 enctime: 31.37
encoding rcpsp/j90.sm/j9040_8.sm nv: 346160 nc: 697885 enctime: 4.19
c File: j9040_8.smnaive.wcnf
c optimal
c final solution cost: 79
c CPU time: 5.524569
s OPTIMUM FOUND

c File: j9040_8.sm.wcnf
c optimal
c final solution cost: 79
c CPU time: 0.653995
s OPTIMUM FOUND


encoding rcpsp/j90.sm/j9040_9.sm nv: 2032926 nc: 4147254 enctime: 33.66
encoding rcpsp/j90.sm/j9040_9.sm nv: 403326 nc: 819654 enctime: 4.86
c File: j9040_9.smnaive.wcnf
c optimal
c final solution cost: 98
c CPU time: 5.551517
s OPTIMUM FOUND

c File: j9040_9.sm.wcnf
c optimal
c final solution cost: 98
c CPU time: 0.704470
s OPTIMUM FOUND


encoding rcpsp/j90.sm/j904_10.sm nv: 652399 nc: 1349276 enctime: 12.19
encoding rcpsp/j90.sm/j904_10.sm nv: 96393 nc: 196668 enctime: 0.91
c File: j904_10.smnaive.wcnf
c optimal
c final solution cost: 68
c CPU time: 2.324937
s OPTIMUM FOUND

c File: j904_10.sm.wcnf
c optimal
c final solution cost: 68
c CPU time: 0.173436
s OPTIMUM FOUND


encoding rcpsp/j90.sm/j9041_10.sm nv: 1680602 nc: 3518512 enctime: 30.42
encoding rcpsp/j90.sm/j9041_10.sm nv: 530060 nc: 1106728 enctime: 7.21
c File: j9041_10.smnaive.wcnf
c timeout
c final solution cost: 163
c CPU time: 64.421079
s UNKNOWN

c File: j9041_10.sm.wcnf
c timeout
c final solution cost: 165
c CPU time: 60.972742
s UNKNOWN


j90
1000
0
rcpsp/heur_output_log_0/heurj90.txt
encoding rcpsp/j90.sm/j9041_1.sm nv: 1462388 nc: 3038039 enctime: 25.63
encoding rcpsp/j90.sm/j9041_1.sm nv: 494542 nc: 1024830 enctime: 5.91
c File: j9041_1.smnaive.wcnf
c timeout
c final solution cost: 158
c CPU time: 63.636952
s UNKNOWN

c File: j9041_1.sm.wcnf
c timeout
c final solution cost: 158
c CPU time: 60.878712
s UNKNOWN


j90
1000
0
rcpsp/heur_output_log_0/heurj90.txt
encoding rcpsp/j90.sm/j9041_2.sm nv: 1370754 nc: 2874173 enctime: 25.02
encoding rcpsp/j90.sm/j9041_2.sm nv: 549927 nc: 1150709 enctime: 6.70
c File: j9041_2.smnaive.wcnf
c timeout
c final solution cost: 246
c CPU time: 63.685868
s UNKNOWN

c File: j9041_2.sm.wcnf
c timeout
c final solution cost: 181
c CPU time: 61.098133
s UNKNOWN


j90
1000
0
rcpsp/heur_output_log_0/heurj90.txt
encoding rcpsp/j90.sm/j9041_3.sm nv: 1409859 nc: 2960747 enctime: 25.74
encoding rcpsp/j90.sm/j9041_3.sm nv: 515403 nc: 1079667 enctime: 7.07
c File: j9041_3.smnaive.wcnf
c timeout
c final solution cost: 174
c CPU time: 63.791434
s UNKNOWN

c File: j9041_3.sm.wcnf
c timeout
c final solution cost: 176
c CPU time: 60.980195
s UNKNOWN


j90
1000
0
rcpsp/heur_output_log_0/heurj90.txt
encoding rcpsp/j90.sm/j9041_4.sm nv: 1635865 nc: 3429029 enctime: 29.88
encoding rcpsp/j90.sm/j9041_4.sm nv: 537195 nc: 1123089 enctime: 6.58
c File: j9041_4.smnaive.wcnf
c timeout
c final solution cost: 175
c CPU time: 64.369406
s UNKNOWN

c File: j9041_4.sm.wcnf
c timeout
c CPU time: 60.847787
s UNKNOWN


j90
1000
0
rcpsp/heur_output_log_0/heurj90.txt
encoding rcpsp/j90.sm/j9041_5.sm nv: 1378391 nc: 2861433 enctime: 23.96
encoding rcpsp/j90.sm/j9041_5.sm nv: 437911 nc: 906553 enctime: 5.18
c File: j9041_5.smnaive.wcnf
c timeout
c final solution cost: 141
c CPU time: 63.355534
s UNKNOWN

c File: j9041_5.sm.wcnf
c timeout
c final solution cost: 139
c CPU time: 60.777957
s UNKNOWN


j90
1000
0
rcpsp/heur_output_log_0/heurj90.txt
encoding rcpsp/j90.sm/j9041_6.sm nv: 1504266 nc: 3116690 enctime: 25.62
encoding rcpsp/j90.sm/j9041_6.sm nv: 494079 nc: 1021202 enctime: 5.79
c File: j9041_6.smnaive.wcnf
c timeout
c final solution cost: 150
c CPU time: 63.643588
s UNKNOWN

c File: j9041_6.sm.wcnf
c timeout
c final solution cost: 143
c CPU time: 60.857477
s UNKNOWN


j90
1000
0
rcpsp/heur_output_log_0/heurj90.txt
encoding rcpsp/j90.sm/j9041_7.sm nv: 1339815 nc: 2806401 enctime: 24.02
encoding rcpsp/j90.sm/j9041_7.sm nv: 477930 nc: 998529 enctime: 5.82
c File: j9041_7.smnaive.wcnf
c timeout
c final solution cost: 169
c CPU time: 63.703852
s UNKNOWN

c File: j9041_7.sm.wcnf
c timeout
c final solution cost: 168
c CPU time: 60.882595
s UNKNOWN


j90
1000
0
rcpsp/heur_output_log_0/heurj90.txt
encoding rcpsp/j90.sm/j9041_8.sm nv: 1616526 nc: 3404092 enctime: 29.91
encoding rcpsp/j90.sm/j9041_8.sm nv: 533048 nc: 1119326 enctime: 6.49
c File: j9041_8.smnaive.wcnf
c timeout
c final solution cost: 181
c CPU time: 64.396209
s UNKNOWN

c File: j9041_8.sm.wcnf
c timeout
c CPU time: 60.853762
s UNKNOWN


j90
1000
0
rcpsp/heur_output_log_0/heurj90.txt
encoding rcpsp/j90.sm/j9041_9.sm nv: 1743007 nc: 3606678 enctime: 29.20
encoding rcpsp/j90.sm/j9041_9.sm nv: 485527 nc: 1001718 enctime: 6.45
c File: j9041_9.smnaive.wcnf
c timeout
c final solution cost: 135
c CPU time: 64.098507
s UNKNOWN

c File: j9041_9.sm.wcnf
c timeout
c final solution cost: 126
c CPU time: 60.789153
s UNKNOWN


j90
1000
0
rcpsp/heur_output_log_0/heurj90.txt
encoding rcpsp/j90.sm/j904_1.sm nv: 604890 nc: 1289702 enctime: 11.92
encoding rcpsp/j90.sm/j904_1.sm nv: 114868 nc: 241889 enctime: 1.48
c File: j904_1.smnaive.wcnf
c optimal
c final solution cost: 93
c CPU time: 2.358133
s OPTIMUM FOUND

c File: j904_1.sm.wcnf
c optimal
c final solution cost: 93
c CPU time: 0.214330
s OPTIMUM FOUND


j90
1000
0
rcpsp/heur_output_log_0/heurj90.txt
encoding rcpsp/j90.sm/j9042_10.sm nv: 2572635 nc: 5242145 enctime: 40.14
encoding rcpsp/j90.sm/j9042_10.sm nv: 528905 nc: 1074687 enctime: 6.25
c File: j9042_10.smnaive.wcnf
c timeout
c final solution cost: 92
c CPU time: 65.223523
s UNKNOWN

c File: j9042_10.sm.wcnf
c timeout
c final solution cost: 92
c CPU time: 60.808758
s UNKNOWN


j90
1000
0
rcpsp/heur_output_log_0/heurj90.txt
encoding rcpsp/j90.sm/j9042_1.sm nv: 2488480 nc: 5092291 enctime: 39.96
encoding rcpsp/j90.sm/j9042_1.sm nv: 541184 nc: 1104203 enctime: 6.38
c File: j9042_1.smnaive.wcnf
c optimal
c final solution cost: 106
c CPU time: 8.592393
s OPTIMUM FOUND

c File: j9042_1.sm.wcnf
c optimal
c final solution cost: 106
c CPU time: 1.933809
s OPTIMUM FOUND


j90
1000
0
rcpsp/heur_output_log_0/heurj90.txt
encoding rcpsp/j90.sm/j9042_2.sm nv: 2394450 nc: 4898528 enctime: 38.55
encoding rcpsp/j90.sm/j9042_2.sm nv: 535230 nc: 1091780 enctime: 6.28
c File: j9042_2.smnaive.wcnf
c timeout
c final solution cost: 102
c CPU time: 65.039943
s UNKNOWN

c File: j9042_2.sm.wcnf
c timeout
c final solution cost: 103
c CPU time: 60.826679
s UNKNOWN


j90
1000
0
rcpsp/heur_output_log_0/heurj90.txt
encoding rcpsp/j90.sm/j9042_3.sm nv: 2901836 nc: 5911693 enctime: 44.74
encoding rcpsp/j90.sm/j9042_3.sm nv: 554598 nc: 1126294 enctime: 7.65
c File: j9042_3.smnaive.wcnf
c optimal
c final solution cost: 94
c CPU time: 23.397178
s OPTIMUM FOUND

c File: j9042_3.sm.wcnf
c optimal
c final solution cost: 94
c CPU time: 2.436548
s OPTIMUM FOUND


j90
1000
0
rcpsp/heur_output_log_0/heurj90.txt
encoding rcpsp/j90.sm/j9042_4.sm nv: 2492316 nc: 5082927 enctime: 38.95
encoding rcpsp/j90.sm/j9042_4.sm nv: 573588 nc: 1166847 enctime: 6.67
c File: j9042_4.smnaive.wcnf
c optimal
c final solution cost: 102
c CPU time: 7.687364
s OPTIMUM FOUND

c File: j9042_4.sm.wcnf
c optimal
c final solution cost: 102
c CPU time: 1.538366
s OPTIMUM FOUND


j90
1000
0
rcpsp/heur_output_log_0/heurj90.txt
encoding rcpsp/j90.sm/j9042_5.sm nv: 2389274 nc: 4870240 enctime: 37.05
encoding rcpsp/j90.sm/j9042_5.sm nv: 565098 nc: 1149024 enctime: 6.56
c File: j9042_5.smnaive.wcnf
c optimal
c final solution cost: 105
c CPU time: 8.188694
s OPTIMUM FOUND

c File: j9042_5.sm.wcnf
c optimal
c final solution cost: 105
c CPU time: 1.529605
s OPTIMUM FOUND


j90
1000
0
rcpsp/heur_output_log_0/heurj90.txt
encoding rcpsp/j90.sm/j9042_6.sm nv: 2356760 nc: 4773575 enctime: 35.03
encoding rcpsp/j90.sm/j9042_6.sm nv: 494760 nc: 999525 enctime: 5.72
c File: j9042_6.smnaive.wcnf
c optimal
c final solution cost: 89
c CPU time: 7.557457
s OPTIMUM FOUND

c File: j9042_6.sm.wcnf
c optimal
c final solution cost: 89
c CPU time: 1.270509
s OPTIMUM FOUND


j90
1000
0
rcpsp/heur_output_log_0/heurj90.txt
encoding rcpsp/j90.sm/j9042_7.sm nv: 2354625 nc: 4800188 enctime: 36.28
encoding rcpsp/j90.sm/j9042_7.sm nv: 468000 nc: 951086 enctime: 5.45
c File: j9042_7.smnaive.wcnf
c timeout
c final solution cost: 90
c CPU time: 64.795638
s UNKNOWN

c File: j9042_7.sm.wcnf
c timeout
c final solution cost: 87
c CPU time: 60.683918
s UNKNOWN


